NAME          
ROWS
 N  OBJ
 L  c2
 L  c3
 L  c4
 L  c5
 L  c6
 L  c7
 L  c8
 L  c9
 L  c10
 L  c11
 G  c1
COLUMNS
    ss[1]     c1        1
    ss[1]     OBJ       1000
    s[1]      c2        1
    s[1]      OBJ       -1000
    s[2]      c3        1
    s[2]      OBJ       -1000
    s[3]      c4        1
    s[3]      OBJ       -1000
    s[4]      c5        1
    s[4]      OBJ       -1000
    s[5]      c6        1
    s[5]      OBJ       -1000
    s[6]      c7        1
    s[6]      OBJ       -1000
    s[7]      c8        1
    s[7]      OBJ       -1000
    s[8]      c9        1
    s[8]      OBJ       -1000
    s[9]      c10       1
    s[9]      OBJ       -1000
    s[10]     c11       1
    s[10]     OBJ       -1000
    MARKER    'MARKER'                 'INTORG'
    x[1]      c2        772
    x[1]      c3        719
    x[1]      c4        529
    x[1]      c5        729
    x[1]      c6        508
    x[1]      c7        793
    x[1]      c8        56
    x[1]      c9        662
    x[1]      c10       8
    x[1]      c11       265
    x[1]      c1        556
    x[1]      OBJ       -813
    x[2]      c2        91
    x[2]      c3        942
    x[2]      c4        615
    x[2]      c5        806
    x[2]      c6        759
    x[2]      c7        545
    x[2]      c8        827
    x[2]      c9        425
    x[2]      c10       560
    x[2]      c11       246
    x[2]      c1        736
    x[2]      OBJ       -691
    x[3]      c2        191
    x[3]      c3        236
    x[3]      c4        165
    x[3]      c5        209
    x[3]      c6        548
    x[3]      c7        678
    x[3]      c8        795
    x[3]      c9        479
    x[3]      c10       767
    x[3]      c11       831
    x[3]      c1        301
    x[3]      OBJ       -1067
    x[4]      c2        54
    x[4]      c3        855
    x[4]      c4        545
    x[4]      c5        630
    x[4]      c6        875
    x[4]      c7        470
    x[4]      c8        880
    x[4]      c9        921
    x[4]      c10       231
    x[4]      c11       622
    x[4]      c1        111
    x[4]      OBJ       -1215
    x[5]      c2        503
    x[5]      c3        960
    x[5]      c4        371
    x[5]      c5        380
    x[5]      c6        989
    x[5]      c7        887
    x[5]      c8        323
    x[5]      c9        847
    x[5]      c10       352
    x[5]      c11       970
    x[5]      c1        704
    x[5]      OBJ       -941
    x[6]      c2        526
    x[6]      c3        255
    x[6]      c4        484
    x[6]      c5        488
    x[6]      c6        568
    x[6]      c7        327
    x[6]      c8        953
    x[6]      c9        48
    x[6]      c10       426
    x[6]      c11       158
    x[6]      c1        408
    x[6]      OBJ       -988
    x[7]      c2        299
    x[7]      c3        135
    x[7]      c4        981
    x[7]      c5        6
    x[7]      c6        706
    x[7]      c7        458
    x[7]      c8        743
    x[7]      c9        85
    x[7]      c10       254
    x[7]      c11       504
    x[7]      c1        163
    x[7]      OBJ       -1204
    x[8]      c2        598
    x[8]      c3        506
    x[8]      c4        582
    x[8]      c5        350
    x[8]      c6        53
    x[8]      c7        851
    x[8]      c8        813
    x[8]      c9        279
    x[8]      c10       660
    x[8]      c11       480
    x[8]      c1        315
    x[8]      OBJ       -1049
    x[9]      c2        444
    x[9]      c3        942
    x[9]      c4        687
    x[9]      c5        32
    x[9]      c6        816
    x[9]      c7        22
    x[9]      c8        556
    x[9]      c9        233
    x[9]      c10       317
    x[9]      c11       273
    x[9]      c1        670
    x[9]      OBJ       -841
    x[10]     c2        850
    x[10]     c3        989
    x[10]     c4        307
    x[10]     c5        319
    x[10]     c6        459
    x[10]     c7        840
    x[10]     c8        143
    x[10]     c9        42
    x[10]     c10       697
    x[10]     c11       52
    x[10]     c1        457
    x[10]     OBJ       -683
    x[11]     c2        318
    x[11]     c3        89
    x[11]     c4        476
    x[11]     c5        884
    x[11]     c6        770
    x[11]     c7        772
    x[11]     c8        907
    x[11]     c9        768
    x[11]     c10       6
    x[11]     c11       271
    x[11]     c1        357
    x[11]     OBJ       -1214
    x[12]     c2        464
    x[12]     c3        139
    x[12]     c4        636
    x[12]     c5        463
    x[12]     c6        119
    x[12]     c7        714
    x[12]     c8        47
    x[12]     c9        720
    x[12]     c10       449
    x[12]     c11       341
    x[12]     c1        916
    x[12]     OBJ       -528
    x[13]     c2        625
    x[13]     c3        325
    x[13]     c4        937
    x[13]     c5        546
    x[13]     c6        717
    x[13]     c7        922
    x[13]     c8        317
    x[13]     c9        85
    x[13]     c10       362
    x[13]     c11       952
    x[13]     c1        614
    x[13]     OBJ       -1022
    x[14]     c2        297
    x[14]     c3        576
    x[14]     c4        71
    x[14]     c5        703
    x[14]     c6        230
    x[14]     c7        644
    x[14]     c8        847
    x[14]     c9        359
    x[14]     c10       858
    x[14]     c11       478
    x[14]     c1        60
    x[14]     OBJ       -1171
    x[15]     c2        37
    x[15]     c3        781
    x[15]     c4        309
    x[15]     c5        819
    x[15]     c6        364
    x[15]     c7        160
    x[15]     c8        452
    x[15]     c9        34
    x[15]     c10       170
    x[15]     c11       142
    x[15]     c1        373
    x[15]     OBJ       -929
    x[16]     c2        627
    x[16]     c3        78
    x[16]     c4        971
    x[16]     c5        29
    x[16]     c6        950
    x[16]     c7        990
    x[16]     c8        995
    x[16]     c9        207
    x[16]     c10       852
    x[16]     c11       767
    x[16]     c1        182
    x[16]     OBJ       -1447
    x[17]     c2        567
    x[17]     c3        178
    x[17]     c4        550
    x[17]     c5        288
    x[17]     c6        495
    x[17]     c7        236
    x[17]     c8        483
    x[17]     c9        187
    x[17]     c10       670
    x[17]     c11       56
    x[17]     c1        129
    x[17]     OBJ       -950
    x[18]     c2        823
    x[18]     c3        881
    x[18]     c4        99
    x[18]     c5        979
    x[18]     c6        750
    x[18]     c7        378
    x[18]     c8        10
    x[18]     c9        3
    x[18]     c10       274
    x[18]     c11       563
    x[18]     c1        767
    x[18]     OBJ       -384
    x[19]     c2        393
    x[19]     c3        108
    x[19]     c4        109
    x[19]     c5        49
    x[19]     c6        652
    x[19]     c7        578
    x[19]     c8        579
    x[19]     c9        101
    x[19]     c10       855
    x[19]     c11       923
    x[19]     c1        896
    x[19]     OBJ       -351
    x[20]     c2        996
    x[20]     c3        442
    x[20]     c4        900
    x[20]     c5        212
    x[20]     c6        5
    x[20]     c7        37
    x[20]     c8        571
    x[20]     c9        887
    x[20]     c10       869
    x[20]     c11       208
    x[20]     c1        178
    x[20]     OBJ       -1107
    x[21]     c2        680
    x[21]     c3        444
    x[21]     c4        537
    x[21]     c5        204
    x[21]     c6        541
    x[21]     c7        95
    x[21]     c8        557
    x[21]     c9        432
    x[21]     c10       634
    x[21]     c11       344
    x[21]     c1        975
    x[21]     OBJ       -165
    x[22]     c2        819
    x[22]     c3        158
    x[22]     c4        799
    x[22]     c5        598
    x[22]     c6        489
    x[22]     c7        752
    x[22]     c8        63
    x[22]     c9        200
    x[22]     c10       174
    x[22]     c11       360
    x[22]     c1        226
    x[22]     OBJ       -1200
    x[23]     c2        905
    x[23]     c3        257
    x[23]     c4        922
    x[23]     c5        375
    x[23]     c6        218
    x[23]     c7        977
    x[23]     c8        688
    x[23]     c9        508
    x[23]     c10       172
    x[23]     c11       7
    x[23]     c1        404
    x[23]     OBJ       -1198
    x[24]     c2        403
    x[24]     c3        333
    x[24]     c4        777
    x[24]     c5        731
    x[24]     c6        221
    x[24]     c7        564
    x[24]     c8        494
    x[24]     c9        318
    x[24]     c10       45
    x[24]     c11       879
    x[24]     c1        833
    x[24]     OBJ       -627
    x[25]     c2        611
    x[25]     c3        22
    x[25]     c4        513
    x[25]     c5        705
    x[25]     c6        736
    x[25]     c7        39
    x[25]     c8        821
    x[25]     c9        130
    x[25]     c10       993
    x[25]     c11       816
    x[25]     c1        575
    x[25]     OBJ       -624
    x[26]     c2        794
    x[26]     c3        882
    x[26]     c4        725
    x[26]     c5        53
    x[26]     c6        786
    x[26]     c7        862
    x[26]     c8        232
    x[26]     c9        161
    x[26]     c10       727
    x[26]     c11       715
    x[26]     c1        340
    x[26]     OBJ       -944
    x[27]     c2        758
    x[27]     c3        39
    x[27]     c4        897
    x[27]     c5        173
    x[27]     c6        749
    x[27]     c7        515
    x[27]     c8        76
    x[27]     c9        124
    x[27]     c10       167
    x[27]     c11       300
    x[27]     c1        321
    x[27]     OBJ       -756
    x[28]     c2        63
    x[28]     c3        288
    x[28]     c4        553
    x[28]     c5        51
    x[28]     c6        186
    x[28]     c7        618
    x[28]     c8        611
    x[28]     c9        236
    x[28]     c10       743
    x[28]     c11       833
    x[28]     c1        580
    x[28]     OBJ       -886
    x[29]     c2        687
    x[29]     c3        725
    x[29]     c4        960
    x[29]     c5        599
    x[29]     c6        123
    x[29]     c7        959
    x[29]     c8        865
    x[29]     c9        884
    x[29]     c10       827
    x[29]     c11       404
    x[29]     c1        425
    x[29]     OBJ       -987
    x[30]     c2        740
    x[30]     c3        833
    x[30]     c4        494
    x[30]     c5        17
    x[30]     c6        544
    x[30]     c7        282
    x[30]     c8        661
    x[30]     c9        958
    x[30]     c10       915
    x[30]     c11       529
    x[30]     c1        955
    x[30]     OBJ       -567
    x[31]     c2        720
    x[31]     c3        435
    x[31]     c4        273
    x[31]     c5        989
    x[31]     c6        735
    x[31]     c7        648
    x[31]     c8        290
    x[31]     c9        784
    x[31]     c10       263
    x[31]     c11       395
    x[31]     c1        739
    x[31]     OBJ       -879
    x[32]     c2        438
    x[32]     c3        294
    x[32]     c4        624
    x[32]     c5        950
    x[32]     c6        27
    x[32]     c7        915
    x[32]     c8        29
    x[32]     c9        546
    x[32]     c10       57
    x[32]     c11       368
    x[32]     c1        473
    x[32]     OBJ       -742
    x[33]     c2        681
    x[33]     c3        689
    x[33]     c4        180
    x[33]     c5        982
    x[33]     c6        36
    x[33]     c7        383
    x[33]     c8        945
    x[33]     c9        626
    x[33]     c10       344
    x[33]     c11       377
    x[33]     c1        946
    x[33]     OBJ       -261
    x[34]     c2        795
    x[34]     c3        252
    x[34]     c4        515
    x[34]     c5        805
    x[34]     c6        126
    x[34]     c7        666
    x[34]     c8        413
    x[34]     c9        698
    x[34]     c10       973
    x[34]     c11       792
    x[34]     c1        666
    x[34]     OBJ       -803
    x[35]     c2        619
    x[35]     c3        80
    x[35]     c4        211
    x[35]     c5        226
    x[35]     c6        654
    x[35]     c7        142
    x[35]     c8        859
    x[35]     c9        623
    x[35]     c10       61
    x[35]     c11       504
    x[35]     c1        630
    x[35]     OBJ       -824
    x[36]     c2        522
    x[36]     c3        627
    x[36]     c4        807
    x[36]     c5        312
    x[36]     c6        911
    x[36]     c7        33
    x[36]     c8        197
    x[36]     c9        746
    x[36]     c10       66
    x[36]     c11       503
    x[36]     c1        462
    x[36]     OBJ       -736
    x[37]     c2        198
    x[37]     c3        46
    x[37]     c4        483
    x[37]     c5        316
    x[37]     c6        684
    x[37]     c7        479
    x[37]     c8        318
    x[37]     c9        836
    x[37]     c10       973
    x[37]     c11       434
    x[37]     c1        841
    x[37]     OBJ       -603
    x[38]     c2        87
    x[38]     c3        985
    x[38]     c4        821
    x[38]     c5        780
    x[38]     c6        416
    x[38]     c7        388
    x[38]     c8        408
    x[38]     c9        542
    x[38]     c10       431
    x[38]     c11       891
    x[38]     c1        2
    x[38]     OBJ       -1393
    x[39]     c2        185
    x[39]     c3        806
    x[39]     c4        366
    x[39]     c5        480
    x[39]     c6        720
    x[39]     c7        503
    x[39]     c8        587
    x[39]     c9        263
    x[39]     c10       2
    x[39]     c11       239
    x[39]     c1        778
    x[39]     OBJ       -699
    x[40]     c2        109
    x[40]     c3        686
    x[40]     c4        729
    x[40]     c5        718
    x[40]     c6        216
    x[40]     c7        122
    x[40]     c8        387
    x[40]     c9        970
    x[40]     c10       136
    x[40]     c11       329
    x[40]     c1        714
    x[40]     OBJ       -491
    x[41]     c2        70
    x[41]     c3        944
    x[41]     c4        369
    x[41]     c5        151
    x[41]     c6        791
    x[41]     c7        767
    x[41]     c8        567
    x[41]     c9        986
    x[41]     c10       472
    x[41]     c11       567
    x[41]     c1        855
    x[41]     OBJ       -456
    x[42]     c2        67
    x[42]     c3        392
    x[42]     c4        355
    x[42]     c5        703
    x[42]     c6        346
    x[42]     c7        405
    x[42]     c8        557
    x[42]     c9        595
    x[42]     c10       301
    x[42]     c11       649
    x[42]     c1        768
    x[42]     OBJ       -375
    x[43]     c2        46
    x[43]     c3        98
    x[43]     c4        852
    x[43]     c5        792
    x[43]     c6        476
    x[43]     c7        627
    x[43]     c8        367
    x[43]     c9        909
    x[43]     c10       231
    x[43]     c11       900
    x[43]     c1        141
    x[43]     OBJ       -1069
    x[44]     c2        258
    x[44]     c3        823
    x[44]     c4        505
    x[44]     c5        601
    x[44]     c6        953
    x[44]     c7        597
    x[44]     c8        290
    x[44]     c9        576
    x[44]     c10       536
    x[44]     c11       29
    x[44]     c1        847
    x[44]     OBJ       -580
    x[45]     c2        678
    x[45]     c3        369
    x[45]     c4        697
    x[45]     c5        97
    x[45]     c6        756
    x[45]     c7        762
    x[45]     c8        187
    x[45]     c9        700
    x[45]     c10       562
    x[45]     c11       314
    x[45]     c1        325
    x[45]     OBJ       -1045
    x[46]     c2        261
    x[46]     c3        901
    x[46]     c4        335
    x[46]     c5        385
    x[46]     c6        137
    x[46]     c7        274
    x[46]     c8        412
    x[46]     c9        962
    x[46]     c10       337
    x[46]     c11       29
    x[46]     c1        765
    x[46]     OBJ       -461
    x[47]     c2        791
    x[47]     c3        148
    x[47]     c4        623
    x[47]     c5        418
    x[47]     c6        408
    x[47]     c7        855
    x[47]     c8        171
    x[47]     c9        228
    x[47]     c10       326
    x[47]     c11       155
    x[47]     c1        10
    x[47]     OBJ       -1430
    x[48]     c2        33
    x[48]     c3        807
    x[48]     c4        644
    x[48]     c5        833
    x[48]     c6        583
    x[48]     c7        441
    x[48]     c8        126
    x[48]     c9        853
    x[48]     c10       29
    x[48]     c11       98
    x[48]     c1        162
    x[48]     OBJ       -1194
    x[49]     c2        796
    x[49]     c3        386
    x[49]     c4        77
    x[49]     c5        526
    x[49]     c6        717
    x[49]     c7        798
    x[49]     c8        837
    x[49]     c9        350
    x[49]     c10       114
    x[49]     c11       977
    x[49]     c1        208
    x[49]     OBJ       -1191
    x[50]     c2        400
    x[50]     c3        440
    x[50]     c4        304
    x[50]     c5        299
    x[50]     c6        349
    x[50]     c7        954
    x[50]     c8        499
    x[50]     c9        636
    x[50]     c10       325
    x[50]     c11       3
    x[50]     c1        981
    x[50]     OBJ       -562
    x[51]     c2        88
    x[51]     c3        508
    x[51]     c4        385
    x[51]     c5        929
    x[51]     c6        86
    x[51]     c7        763
    x[51]     c8        6
    x[51]     c9        721
    x[51]     c10       516
    x[51]     c11       835
    x[51]     c1        638
    x[51]     OBJ       -605
    x[52]     c2        513
    x[52]     c3        322
    x[52]     c4        810
    x[52]     c5        913
    x[52]     c6        888
    x[52]     c7        219
    x[52]     c8        590
    x[52]     c9        129
    x[52]     c10       276
    x[52]     c11       714
    x[52]     c1        184
    x[52]     OBJ       -1123
    x[53]     c2        201
    x[53]     c3        322
    x[53]     c4        5
    x[53]     c5        335
    x[53]     c6        732
    x[53]     c7        908
    x[53]     c8        634
    x[53]     c9        981
    x[53]     c10       140
    x[53]     c11       171
    x[53]     c1        124
    x[53]     OBJ       -1053
    x[54]     c2        162
    x[54]     c3        534
    x[54]     c4        141
    x[54]     c5        607
    x[54]     c6        917
    x[54]     c7        632
    x[54]     c8        425
    x[54]     c9        432
    x[54]     c10       333
    x[54]     c11       119
    x[54]     c1        910
    x[54]     OBJ       -253
    x[55]     c2        471
    x[55]     c3        241
    x[55]     c4        149
    x[55]     c5        68
    x[55]     c6        389
    x[55]     c7        221
    x[55]     c8        340
    x[55]     c9        968
    x[55]     c10       827
    x[55]     c11       476
    x[55]     c1        332
    x[55]     OBJ       -771
    x[56]     c2        506
    x[56]     c3        981
    x[56]     c4        748
    x[56]     c5        231
    x[56]     c6        878
    x[56]     c7        270
    x[56]     c8        490
    x[56]     c9        586
    x[56]     c10       797
    x[56]     c11       808
    x[56]     c1        634
    x[56]     OBJ       -711
    x[57]     c2        961
    x[57]     c3        809
    x[57]     c4        57
    x[57]     c5        820
    x[57]     c6        705
    x[57]     c7        271
    x[57]     c8        940
    x[57]     c9        285
    x[57]     c10       275
    x[57]     c11       923
    x[57]     c1        555
    x[57]     OBJ       -853
    x[58]     c2        677
    x[58]     c3        693
    x[58]     c4        270
    x[58]     c5        709
    x[58]     c6        321
    x[58]     c7        370
    x[58]     c8        85
    x[58]     c9        536
    x[58]     c10       912
    x[58]     c11       389
    x[58]     c1        55
    x[58]     OBJ       -1094
    x[59]     c2        803
    x[59]     c3        62
    x[59]     c4        153
    x[59]     c5        786
    x[59]     c6        641
    x[59]     c7        239
    x[59]     c8        39
    x[59]     c9        416
    x[59]     c10       713
    x[59]     c11       594
    x[59]     c1        396
    x[59]     OBJ       -851
    x[60]     c2        882
    x[60]     c3        839
    x[60]     c4        884
    x[60]     c5        719
    x[60]     c6        690
    x[60]     c7        935
    x[60]     c8        483
    x[60]     c9        644
    x[60]     c10       906
    x[60]     c11       384
    x[60]     c1        23
    x[60]     OBJ       -1616
    x[61]     c2        9
    x[61]     c3        163
    x[61]     c4        119
    x[61]     c5        163
    x[61]     c6        645
    x[61]     c7        87
    x[61]     c8        860
    x[61]     c9        870
    x[61]     c10       196
    x[61]     c11       717
    x[61]     c1        171
    x[61]     OBJ       -858
    x[62]     c2        309
    x[62]     c3        498
    x[62]     c4        594
    x[62]     c5        390
    x[62]     c6        918
    x[62]     c7        579
    x[62]     c8        52
    x[62]     c9        378
    x[62]     c10       242
    x[62]     c11       8
    x[62]     c1        310
    x[62]     OBJ       -858
    x[63]     c2        924
    x[63]     c3        878
    x[63]     c4        952
    x[63]     c5        915
    x[63]     c6        203
    x[63]     c7        833
    x[63]     c8        748
    x[63]     c9        39
    x[63]     c10       378
    x[63]     c11       713
    x[63]     c1        181
    x[63]     OBJ       -1403
    x[64]     c2        67
    x[64]     c3        937
    x[64]     c4        487
    x[64]     c5        556
    x[64]     c6        112
    x[64]     c7        167
    x[64]     c8        381
    x[64]     c9        695
    x[64]     c10       701
    x[64]     c11       203
    x[64]     c1        378
    x[64]     OBJ       -1008
    x[65]     c2        700
    x[65]     c3        373
    x[65]     c4        755
    x[65]     c5        755
    x[65]     c6        589
    x[65]     c7        235
    x[65]     c8        394
    x[65]     c9        138
    x[65]     c10       814
    x[65]     c11       547
    x[65]     c1        600
    x[65]     OBJ       -999
    x[66]     c2        621
    x[66]     c3        851
    x[66]     c4        599
    x[66]     c5        836
    x[66]     c6        916
    x[66]     c7        944
    x[66]     c8        99
    x[66]     c9        671
    x[66]     c10       244
    x[66]     c11       331
    x[66]     c1        742
    x[66]     OBJ       -849
    x[67]     c2        121
    x[67]     c3        849
    x[67]     c4        106
    x[67]     c5        46
    x[67]     c6        102
    x[67]     c7        766
    x[67]     c8        6
    x[67]     c9        222
    x[67]     c10       958
    x[67]     c11       391
    x[67]     c1        275
    x[67]     OBJ       -1078
    x[68]     c2        222
    x[68]     c3        750
    x[68]     c4        620
    x[68]     c5        262
    x[68]     c6        815
    x[68]     c7        264
    x[68]     c8        117
    x[68]     c9        299
    x[68]     c10       604
    x[68]     c11       863
    x[68]     c1        601
    x[68]     OBJ       -669
    x[69]     c2        14
    x[69]     c3        257
    x[69]     c4        594
    x[69]     c5        455
    x[69]     c6        768
    x[69]     c7        128
    x[69]     c8        212
    x[69]     c9        351
    x[69]     c10       498
    x[69]     c11       653
    x[69]     c1        951
    x[69]     OBJ       -450
    x[70]     c2        778
    x[70]     c3        108
    x[70]     c4        142
    x[70]     c5        566
    x[70]     c6        758
    x[70]     c7        829
    x[70]     c8        859
    x[70]     c9        350
    x[70]     c10       726
    x[70]     c11       97
    x[70]     c1        731
    x[70]     OBJ       -584
    x[71]     c2        236
    x[71]     c3        390
    x[71]     c4        546
    x[71]     c5        247
    x[71]     c6        142
    x[71]     c7        511
    x[71]     c8        502
    x[71]     c9        194
    x[71]     c10       986
    x[71]     c11       399
    x[71]     c1        166
    x[71]     OBJ       -1345
    x[72]     c2        434
    x[72]     c3        73
    x[72]     c4        753
    x[72]     c5        579
    x[72]     c6        605
    x[72]     c7        92
    x[72]     c8        314
    x[72]     c9        509
    x[72]     c10       819
    x[72]     c11       536
    x[72]     c1        659
    x[72]     OBJ       -751
    x[73]     c2        53
    x[73]     c3        74
    x[73]     c4        997
    x[73]     c5        203
    x[73]     c6        119
    x[73]     c7        643
    x[73]     c8        992
    x[73]     c9        908
    x[73]     c10       207
    x[73]     c11       285
    x[73]     c1        15
    x[73]     OBJ       -1408
    x[74]     c2        13
    x[74]     c3        938
    x[74]     c4        562
    x[74]     c5        125
    x[74]     c6        182
    x[74]     c7        469
    x[74]     c8        638
    x[74]     c9        14
    x[74]     c10       249
    x[74]     c11       413
    x[74]     c1        230
    x[74]     OBJ       -962
    x[75]     c2        55
    x[75]     c3        278
    x[75]     c4        546
    x[75]     c5        45
    x[75]     c6        865
    x[75]     c7        322
    x[75]     c8        573
    x[75]     c9        1000
    x[75]     c10       647
    x[75]     c11       195
    x[75]     c1        577
    x[75]     OBJ       -530
    x[76]     c2        83
    x[76]     c3        776
    x[76]     c4        354
    x[76]     c5        614
    x[76]     c6        517
    x[76]     c7        8
    x[76]     c8        925
    x[76]     c9        382
    x[76]     c10       453
    x[76]     c11       809
    x[76]     c1        807
    x[76]     OBJ       -749
    x[77]     c2        330
    x[77]     c3        831
    x[77]     c4        278
    x[77]     c5        256
    x[77]     c6        39
    x[77]     c7        168
    x[77]     c8        369
    x[77]     c9        750
    x[77]     c10       170
    x[77]     c11       735
    x[77]     c1        420
    x[77]     OBJ       -864
    x[78]     c2        41
    x[78]     c3        409
    x[78]     c4        156
    x[78]     c5        480
    x[78]     c6        791
    x[78]     c7        747
    x[78]     c8        90
    x[78]     c9        677
    x[78]     c10       575
    x[78]     c11       65
    x[78]     c1        862
    x[78]     OBJ       -548
    x[79]     c2        82
    x[79]     c3        393
    x[79]     c4        673
    x[79]     c5        492
    x[79]     c6        818
    x[79]     c7        592
    x[79]     c8        7
    x[79]     c9        989
    x[79]     c10       533
    x[79]     c11       982
    x[79]     c1        974
    x[79]     OBJ       -519
    x[80]     c2        419
    x[80]     c3        476
    x[80]     c4        88
    x[80]     c5        31
    x[80]     c6        936
    x[80]     c7        300
    x[80]     c8        504
    x[80]     c9        432
    x[80]     c10       274
    x[80]     c11       49
    x[80]     c1        991
    x[80]     OBJ       -445
    x[81]     c2        412
    x[81]     c3        415
    x[81]     c4        499
    x[81]     c5        1000
    x[81]     c6        920
    x[81]     c7        697
    x[81]     c8        443
    x[81]     c9        784
    x[81]     c10       712
    x[81]     c11       312
    x[81]     c1        795
    x[81]     OBJ       -852
    x[82]     c2        545
    x[82]     c3        589
    x[82]     c4        209
    x[82]     c5        55
    x[82]     c6        327
    x[82]     c7        636
    x[82]     c8        157
    x[82]     c9        595
    x[82]     c10       783
    x[82]     c11       416
    x[82]     c1        938
    x[82]     OBJ       -178
    x[83]     c2        828
    x[83]     c3        724
    x[83]     c4        464
    x[83]     c5        87
    x[83]     c6        162
    x[83]     c7        921
    x[83]     c8        448
    x[83]     c9        464
    x[83]     c10       558
    x[83]     c11       309
    x[83]     c1        792
    x[83]     OBJ       -591
    x[84]     c2        26
    x[84]     c3        421
    x[84]     c4        947
    x[84]     c5        311
    x[84]     c6        59
    x[84]     c7        728
    x[84]     c8        816
    x[84]     c9        664
    x[84]     c10       544
    x[84]     c11       534
    x[84]     c1        647
    x[84]     OBJ       -806
    x[85]     c2        959
    x[85]     c3        416
    x[85]     c4        813
    x[85]     c5        360
    x[85]     c6        395
    x[85]     c7        53
    x[85]     c8        191
    x[85]     c9        740
    x[85]     c10       219
    x[85]     c11       901
    x[85]     c1        59
    x[85]     OBJ       -1365
    x[86]     c2        103
    x[86]     c3        258
    x[86]     c4        886
    x[86]     c5        889
    x[86]     c6        651
    x[86]     c7        401
    x[86]     c8        659
    x[86]     c9        654
    x[86]     c10       929
    x[86]     c11       562
    x[86]     c1        991
    x[86]     OBJ       -543
    x[87]     c2        925
    x[87]     c3        966
    x[87]     c4        560
    x[87]     c5        75
    x[87]     c6        845
    x[87]     c7        696
    x[87]     c8        179
    x[87]     c9        217
    x[87]     c10       362
    x[87]     c11       156
    x[87]     c1        759
    x[87]     OBJ       -745
    x[88]     c2        596
    x[88]     c3        624
    x[88]     c4        943
    x[88]     c5        370
    x[88]     c6        494
    x[88]     c7        389
    x[88]     c8        554
    x[88]     c9        585
    x[88]     c10       361
    x[88]     c11       122
    x[88]     c1        627
    x[88]     OBJ       -746
    x[89]     c2        806
    x[89]     c3        455
    x[89]     c4        904
    x[89]     c5        424
    x[89]     c6        886
    x[89]     c7        374
    x[89]     c8        357
    x[89]     c9        53
    x[89]     c10       566
    x[89]     c11       817
    x[89]     c1        328
    x[89]     OBJ       -1174
    x[90]     c2        683
    x[90]     c3        852
    x[90]     c4        577
    x[90]     c5        382
    x[90]     c6        520
    x[90]     c7        269
    x[90]     c8        31
    x[90]     c9        252
    x[90]     c10       326
    x[90]     c11       962
    x[90]     c1        902
    x[90]     OBJ       -301
    x[91]     c2        828
    x[91]     c3        861
    x[91]     c4        235
    x[91]     c5        684
    x[91]     c6        590
    x[91]     c7        366
    x[91]     c8        735
    x[91]     c9        830
    x[91]     c10       878
    x[91]     c11       160
    x[91]     c1        629
    x[91]     OBJ       -859
    x[92]     c2        862
    x[92]     c3        696
    x[92]     c4        840
    x[92]     c5        762
    x[92]     c6        680
    x[92]     c7        648
    x[92]     c8        895
    x[92]     c9        911
    x[92]     c10       736
    x[92]     c11       880
    x[92]     c1        510
    x[92]     OBJ       -1100
    x[93]     c2        822
    x[93]     c3        807
    x[93]     c4        432
    x[93]     c5        548
    x[93]     c6        775
    x[93]     c7        865
    x[93]     c8        853
    x[93]     c9        535
    x[93]     c10       728
    x[93]     c11       315
    x[93]     c1        103
    x[93]     OBJ       -1518
    x[94]     c2        378
    x[94]     c3        774
    x[94]     c4        399
    x[94]     c5        564
    x[94]     c6        946
    x[94]     c7        738
    x[94]     c8        432
    x[94]     c9        466
    x[94]     c10       309
    x[94]     c11       736
    x[94]     c1        788
    x[94]     OBJ       -695
    x[95]     c2        646
    x[95]     c3        963
    x[95]     c4        836
    x[95]     c5        792
    x[95]     c6        514
    x[95]     c7        536
    x[95]     c8        328
    x[95]     c9        393
    x[95]     c10       827
    x[95]     c11       720
    x[95]     c1        73
    x[95]     OBJ       -1392
    x[96]     c2        97
    x[96]     c3        357
    x[96]     c4        926
    x[96]     c5        960
    x[96]     c6        707
    x[96]     c7        167
    x[96]     c8        423
    x[96]     c9        726
    x[96]     c10       651
    x[96]     c11       189
    x[96]     c1        379
    x[96]     OBJ       -1087
    x[97]     c2        630
    x[97]     c3        522
    x[97]     c4        255
    x[97]     c5        287
    x[97]     c6        177
    x[97]     c7        115
    x[97]     c8        459
    x[97]     c9        69
    x[97]     c10       634
    x[97]     c11       21
    x[97]     c1        573
    x[97]     OBJ       -616
    x[98]     c2        962
    x[98]     c3        284
    x[98]     c4        980
    x[98]     c5        995
    x[98]     c6        696
    x[98]     c7        300
    x[98]     c8        254
    x[98]     c9        967
    x[98]     c10       277
    x[98]     c11       768
    x[98]     c1        783
    x[98]     OBJ       -855
    x[99]     c2        921
    x[99]     c3        967
    x[99]     c4        920
    x[99]     c5        301
    x[99]     c6        156
    x[99]     c7        664
    x[99]     c8        806
    x[99]     c9        675
    x[99]     c10       368
    x[99]     c11       986
    x[99]     c1        310
    x[99]     OBJ       -1263
    x[100]    c2        482
    x[100]    c3        431
    x[100]    c4        174
    x[100]    c5        618
    x[100]    c6        611
    x[100]    c7        33
    x[100]    c8        302
    x[100]    c9        838
    x[100]    c10       190
    x[100]    c11       542
    x[100]    c1        38
    x[100]    OBJ       -1318
RHS
    rhs       c2        35231
    rhs       c3        39240
    rhs       c4        40195
    rhs       c5        36290
    rhs       c6        40624
    rhs       c7        38124
    rhs       c8        35105
    rhs       c9        38802
    rhs       c10       36375
    rhs       c11       35741
    rhs       c1        38517
RANGES
BOUNDS
 LO bounds    ss[1]     0
 PL bounds    ss[1]
 MI bounds    s[1]
 UP bounds    s[1]      0
 MI bounds    s[2]
 UP bounds    s[2]      0
 MI bounds    s[3]
 UP bounds    s[3]      0
 MI bounds    s[4]
 UP bounds    s[4]      0
 MI bounds    s[5]
 UP bounds    s[5]      0
 MI bounds    s[6]
 UP bounds    s[6]      0
 MI bounds    s[7]
 UP bounds    s[7]      0
 MI bounds    s[8]
 UP bounds    s[8]      0
 MI bounds    s[9]
 UP bounds    s[9]      0
 MI bounds    s[10]
 UP bounds    s[10]     0
 BV bounds    x[1]
 BV bounds    x[2]
 BV bounds    x[3]
 BV bounds    x[4]
 BV bounds    x[5]
 BV bounds    x[6]
 BV bounds    x[7]
 BV bounds    x[8]
 BV bounds    x[9]
 BV bounds    x[10]
 BV bounds    x[11]
 BV bounds    x[12]
 BV bounds    x[13]
 BV bounds    x[14]
 BV bounds    x[15]
 BV bounds    x[16]
 BV bounds    x[17]
 BV bounds    x[18]
 BV bounds    x[19]
 BV bounds    x[20]
 BV bounds    x[21]
 BV bounds    x[22]
 BV bounds    x[23]
 BV bounds    x[24]
 BV bounds    x[25]
 BV bounds    x[26]
 BV bounds    x[27]
 BV bounds    x[28]
 BV bounds    x[29]
 BV bounds    x[30]
 BV bounds    x[31]
 BV bounds    x[32]
 BV bounds    x[33]
 BV bounds    x[34]
 BV bounds    x[35]
 BV bounds    x[36]
 BV bounds    x[37]
 BV bounds    x[38]
 BV bounds    x[39]
 BV bounds    x[40]
 BV bounds    x[41]
 BV bounds    x[42]
 BV bounds    x[43]
 BV bounds    x[44]
 BV bounds    x[45]
 BV bounds    x[46]
 BV bounds    x[47]
 BV bounds    x[48]
 BV bounds    x[49]
 BV bounds    x[50]
 BV bounds    x[51]
 BV bounds    x[52]
 BV bounds    x[53]
 BV bounds    x[54]
 BV bounds    x[55]
 BV bounds    x[56]
 BV bounds    x[57]
 BV bounds    x[58]
 BV bounds    x[59]
 BV bounds    x[60]
 BV bounds    x[61]
 BV bounds    x[62]
 BV bounds    x[63]
 BV bounds    x[64]
 BV bounds    x[65]
 BV bounds    x[66]
 BV bounds    x[67]
 BV bounds    x[68]
 BV bounds    x[69]
 BV bounds    x[70]
 BV bounds    x[71]
 BV bounds    x[72]
 BV bounds    x[73]
 BV bounds    x[74]
 BV bounds    x[75]
 BV bounds    x[76]
 BV bounds    x[77]
 BV bounds    x[78]
 BV bounds    x[79]
 BV bounds    x[80]
 BV bounds    x[81]
 BV bounds    x[82]
 BV bounds    x[83]
 BV bounds    x[84]
 BV bounds    x[85]
 BV bounds    x[86]
 BV bounds    x[87]
 BV bounds    x[88]
 BV bounds    x[89]
 BV bounds    x[90]
 BV bounds    x[91]
 BV bounds    x[92]
 BV bounds    x[93]
 BV bounds    x[94]
 BV bounds    x[95]
 BV bounds    x[96]
 BV bounds    x[97]
 BV bounds    x[98]
 BV bounds    x[99]
 BV bounds    x[100]
ENDATA
